sat
(:binary-propagations  125
 :decisions            128
 :del-clause           41
 :final-checks         5
 :max-generation       1
 :max-memory           23.10
 :memory               20.92
 :mk-bool-var          251
 :mk-clause            71
 :mk-clause-binary     157
 :num-allocs           4437159
 :num-checks           1
 :propagations         166
 :quant-instantiations 44
 :restarts             4
 :rlimit-count         53933
 :time                 0.01)
